20 90
0 1 77.7
0 2 62.9
0 3 76.3
0 4 75.5
0 5 34.5
0 6 24.5
0 7 11.5
0 8 78.3
0 9 44.1
0 10 71.2
0 11 64.3
0 12 71.6
0 13 55.7
0 14 39.2
0 15 47.2
0 16 17.4
0 17 67.3
0 18 84.7
0 19 41.7
1 2 26.3
1 3 13.8
1 4 35.9
1 5 56.6
1 6 85.1
1 7 86.9
1 8 25.9
1 9 41.9
1 10 19.0
1 11 34.4
1 12 66.2
1 13 37.5
1 14 72.3
1 15 63.0
1 16 64.5
1 17 45.6
1 18 54.8
1 19 44.7
2 3 16.3
2 4 54.2
2 5 34.1
2 6 63.9
2 7 69.8
2 8 15.5
2 9 42.7
2 10 37.5
2 11 47.5
2 12 40.8
2 13 11.6
2 14 47.8
2 15 37.3
2 16 46.7
2 17 20.7
2 18 34.6
2 19 22.6
3 4 48.5
3 5 50.1
3 6 79.7
3 7 84.2
3 8 12.1
3 9 47.5
3 10 31.1
3 11 45.0
3 12 53.5
3 13 27.9
3 14 64.2
3 15 53.5
3 16 61.2
3 17 33.0
3 18 41.0
3 19 38.2
4 5 70.5
4 6 92.1
4 7 86.8
4 8 60.4
4 9 31.5
4 10 17.5
4 11 11.4
4 12 94.2
4 13 61.9
4 14 87.8
4 15 82.7
4 16 69.6
4 17 74.8
4 18 87.8
4 19 61.2
5 6 29.8
5 7 38.1
5 8 48.2
5 9 43.6
5 10 58.7
5 11 60.0
5 12 38.4
5 13 23.9
5 14 17.3
5 15 15.6
5 16 17.1
5 17 33.1
5 18 50.3
5 19 12.0
6 7 17.6
6 8 77.9
6 9 61.2
6 10 83.8
6 11 80.8
6 12 57.7
6 13 53.6
6 14 22.5
6 15 34.6
6 16 22.6
6 17 60.4
6 18 75.5
6 19 41.5
7 8 84.9
7 9 55.3
7 10 81.7
7 11 75.5
7 12 72.2
7 13 61.2
7 14 37.5
7 15 47.9
7 16 23.1
7 17 71.1
7 18 87.7
7 19 47.6
8 9 55.6
8 10 42.9
8 11 56.0
8 12 43.5
8 13 24.3
8 14 59.9
8 15 48.0
8 16 61.9
8 17 23.8
8 18 29.1
8 19 37.4
9 10 29.1
9 11 20.2
9 12 75.4
9 13 44.6
9 14 60.1
9 15 58.1
9 16 38.9
9 17 59.6
9 18 76.4
9 19 37.5
10 11 15.8
10 12 78.1
10 13 46.3
10 14 75.8
10 15 69.1
10 16 61.5
10 17 58.2
10 18 70.5
10 19 48.0
11 12 86.0
11 13 53.7
11 14 77.2
11 15 72.9
11 16 58.3
11 17 67.5
11 18 81.9
11 19 51.3
12 13 32.3
12 14 35.2
12 15 24.5
12 16 55.1
12 17 20.6
12 18 22.3
12 19 38.4
13 14 36.4
13 15 25.7
13 16 38.6
13 17 15.1
13 18 32.6
13 19 13.9
14 15 12.8
14 16 25.8
14 17 39.6
14 18 53.5
14 19 28.1
15 16 31.0
15 17 26.9
15 18 41.0
15 19 21.6
16 17 49.8
16 18 67.3
16 19 24.7
17 18 18.0
17 19 26.8
18 19 44.8
